
  12    4
  10   10   10   10

   0   0   0   0   0   3 2 3 5 
   2  10  10  10  10   2 7 4 
   7  10  10  10  10   3 10 7 6 
   2  10  10  10  10   2 10 6 
   2  10  10  10  10   3 10 9 8 
   3  10  10  10  10   2 9 8 
   4  10  10  10  10   2 9 8 
   2  10  10  10  10   1 11 
  10  10  10  10  10   1 11 
   9  10  10  10  10   1 11 
  10  10  10  10  10   1 12
   0   0   0   0   0   0 
